100 10
300 761
646 422
621 286
489 745
448 590
728 361
547 517
636 320
645 396
739 472
478 488
653 864
800 252
658 174
379 419
317 628
839 532
616 477
165 695
458 804
219 249
151 711
530 653
563 577
551 765
455 455
513 832
594 651
861 535
516 210
420 234
690 444
303 398
874 764
608 376
558 448
628 393
531 481
231 213
216 312
466 309
737 436
447 450
597 320
169 656
452 513
496 672
601 437
857 498
618 770
437 176
931 597
480 763
570 667
143 520
511 156
828 526
511 452
558 465
274 424
266 714
415 719
305 249
171 578
683 498
358 577
511 555
169 635
402 702
930 533
589 243
541 358
597 741
515 388
427 293
406 402
269 816
681 341
378 452
794 270
483 278
876 238
574 483
592 390
542 419
310 200
292 824
379 649
421 690
441 494
380 385
218 573
511 290
594 813
99 409
483 865
508 567
714 167
579 343
609 511
